(set-info :smt-lib-version 2.6)
(set-logic QF_S)
(set-info :source |
Generated by: Hung-En Wang, Tzung-Lin Tsai, Chun-Han Lin, Fang Yu, and Jie-Hong R. Jiang
Generated on: 2019-02-28
Generator: Stranger
Application: Security analysis of string manipulating web applications
Target solver: CVC4, Norn, Z3-str2
Publication:
Hung-En Wang, Tzung-Lin Tsai, Chun-Han Lin, Fang Yu, Jie-Hong R. Jiang:
String Analysis via Automata Manipulation with Logic Circuit Representation. CAV (1) 2016: 241-260.
|)
(set-info :license "https://creativecommons.org/licenses/by/4.0/")
(set-info :category "industrial")
(set-info :status unknown)

(declare-fun sigmaStar_0 () String)
(declare-fun sigmaStar_1 () String)
(declare-fun sigmaStar_2 () String)
(declare-fun sigmaStar_3 () String)
(declare-fun sigmaStar_4 () String)
(declare-fun literal_5 () String)
(declare-fun x_6 () String)
(declare-fun literal_7 () String)
(declare-fun x_10 () String)
(declare-fun x_11 () String)
(declare-fun literal_8 () String)
(declare-fun literal_9 () String)
(declare-fun x_12 () String)
(declare-fun literal_13 () String)
(declare-fun x_14 () String)
(declare-fun x_15 () String)
(declare-fun literal_16 () String)
(declare-fun x_19 () String)
(declare-fun x_20 () String)
(declare-fun literal_17 () String)
(declare-fun literal_18 () String)
(declare-fun x_21 () String)
(declare-fun literal_22 () String)
(declare-fun x_23 () String)
(declare-fun x_24 () String)
(declare-fun literal_25 () String)
(declare-fun x_28 () String)
(declare-fun x_29 () String)
(declare-fun literal_26 () String)
(declare-fun literal_27 () String)
(declare-fun x_30 () String)
(declare-fun literal_31 () String)
(declare-fun x_32 () String)
(declare-fun x_33 () String)
(declare-fun literal_34 () String)
(declare-fun x_37 () String)
(declare-fun x_38 () String)
(declare-fun literal_35 () String)
(declare-fun literal_36 () String)
(declare-fun x_39 () String)
(declare-fun literal_40 () String)
(declare-fun x_41 () String)
(declare-fun x_42 () String)
(declare-fun literal_43 () String)
(declare-fun x_44 () String)
(assert (= literal_5 "\u{3c}\u{74}\u{72}\u{3e}\u{0d}\u{0a}\u{3c}\u{74}\u{64}\u{20}\u{63}\u{6c}\u{61}\u{73}\u{73}\u{3d}\u{27}\u{74}\u{62}\u{6c}\u{27}\u{3e}"))
(assert (= x_6 (str.++ literal_5 sigmaStar_0)))
(assert (= literal_7 "\u{3c}\u{2f}\u{74}\u{64}\u{3e}\u{0d}\u{0a}\u{3c}\u{74}\u{64}\u{20}\u{63}\u{6c}\u{61}\u{73}\u{73}\u{3d}\u{27}\u{74}\u{62}\u{6c}\u{27}\u{3e}\u{3c}\u{73}\u{65}\u{6c}\u{65}\u{63}\u{74}\u{20}\u{6e}\u{61}\u{6d}\u{65}\u{3d}\u{27}\u{70}\u{61}\u{6e}\u{65}\u{6c}\u{5f}\u{73}\u{69}\u{64}\u{65}\u{27}\u{20}\u{63}\u{6c}\u{61}\u{73}\u{73}\u{3d}\u{27}\u{74}\u{65}\u{78}\u{74}\u{62}\u{6f}\u{78}\u{27}\u{20}\u{73}\u{74}\u{79}\u{6c}\u{65}\u{3d}\u{27}\u{77}\u{69}\u{64}\u{74}\u{68}\u{3a}\u{31}\u{35}\u{30}\u{70}\u{78}\u{3b}\u{27}\u{20}\u{6f}\u{6e}\u{63}\u{68}\u{61}\u{6e}\u{67}\u{65}\u{3d}\u{22}\u{73}\u{68}\u{6f}\u{77}\u{6f}\u{70}\u{74}\u{73}\u{28}\u{74}\u{68}\u{69}\u{73}\u{2e}\u{6f}\u{70}\u{74}\u{69}\u{6f}\u{6e}\u{73}\u{5b}\u{74}\u{68}\u{69}\u{73}\u{2e}\u{73}\u{65}\u{6c}\u{65}\u{63}\u{74}\u{65}\u{64}\u{49}\u{6e}\u{64}\u{65}\u{78}\u{5d}\u{2e}\u{76}\u{61}\u{6c}\u{75}\u{65}\u{29}\u{3b}\u{22}\u{3e}\u{0d}\u{0a}\u{3c}\u{6f}\u{70}\u{74}\u{69}\u{6f}\u{6e}\u{20}\u{76}\u{61}\u{6c}\u{75}\u{65}\u{3d}\u{27}\u{31}\u{27}"))
(assert (= x_10 (str.++ x_6 literal_7)))
(assert (= literal_8 "\u{20}\u{73}\u{65}\u{6c}\u{65}\u{63}\u{74}\u{65}\u{64}"))
(assert (= literal_9 ""))
(assert (or (= x_11 literal_8) (= x_11 literal_9)))
(assert (= x_12 (str.++ x_10 x_11)))
(assert (= literal_13 "\u{3e}"))
(assert (= x_14 (str.++ x_12 literal_13)))
(assert (= x_15 (str.++ x_14 sigmaStar_2)))
(assert (= literal_16 "\u{3c}\u{2f}\u{6f}\u{70}\u{74}\u{69}\u{6f}\u{6e}\u{3e}\u{0d}\u{0a}\u{3c}\u{6f}\u{70}\u{74}\u{69}\u{6f}\u{6e}\u{20}\u{76}\u{61}\u{6c}\u{75}\u{65}\u{3d}\u{27}\u{32}\u{27}"))
(assert (= x_19 (str.++ x_15 literal_16)))
(assert (= literal_17 "\u{20}\u{73}\u{65}\u{6c}\u{65}\u{63}\u{74}\u{65}\u{64}"))
(assert (= literal_18 ""))
(assert (or (= x_20 literal_17) (= x_20 literal_18)))
(assert (= x_21 (str.++ x_19 x_20)))
(assert (= literal_22 "\u{3e}"))
(assert (= x_23 (str.++ x_21 literal_22)))
(assert (= x_24 (str.++ x_23 sigmaStar_4)))
(assert (= literal_25 "\u{3c}\u{2f}\u{6f}\u{70}\u{74}\u{69}\u{6f}\u{6e}\u{3e}\u{0d}\u{0a}\u{3c}\u{6f}\u{70}\u{74}\u{69}\u{6f}\u{6e}\u{20}\u{76}\u{61}\u{6c}\u{75}\u{65}\u{3d}\u{27}\u{33}\u{27}"))
(assert (= x_28 (str.++ x_24 literal_25)))
(assert (= literal_26 "\u{20}\u{73}\u{65}\u{6c}\u{65}\u{63}\u{74}\u{65}\u{64}"))
(assert (= literal_27 ""))
(assert (or (= x_29 literal_26) (= x_29 literal_27)))
(assert (= x_30 (str.++ x_28 x_29)))
(assert (= literal_31 "\u{3e}"))
(assert (= x_32 (str.++ x_30 literal_31)))
(assert (= x_33 (str.++ x_32 sigmaStar_1)))
(assert (= literal_34 "\u{3c}\u{2f}\u{6f}\u{70}\u{74}\u{69}\u{6f}\u{6e}\u{3e}\u{0d}\u{0a}\u{3c}\u{6f}\u{70}\u{74}\u{69}\u{6f}\u{6e}\u{20}\u{76}\u{61}\u{6c}\u{75}\u{65}\u{3d}\u{27}\u{34}\u{27}"))
(assert (= x_37 (str.++ x_33 literal_34)))
(assert (= literal_35 "\u{20}\u{73}\u{65}\u{6c}\u{65}\u{63}\u{74}\u{65}\u{64}"))
(assert (= literal_36 ""))
(assert (or (= x_38 literal_35) (= x_38 literal_36)))
(assert (= x_39 (str.++ x_37 x_38)))
(assert (= literal_40 "\u{3e}"))
(assert (= x_41 (str.++ x_39 literal_40)))
(assert (= x_42 (str.++ x_41 sigmaStar_3)))
(assert (= literal_43 "\u{3c}\u{2f}\u{6f}\u{70}\u{74}\u{69}\u{6f}\u{6e}\u{3e}\u{0d}\u{0a}\u{3c}\u{2f}\u{73}\u{65}\u{6c}\u{65}\u{63}\u{74}\u{3e}\u{3c}\u{2f}\u{74}\u{64}\u{3e}\u{0d}\u{0a}\u{3c}\u{2f}\u{74}\u{72}\u{3e}\u{5c}\u{6e}"))
(assert (= x_44 (str.++ x_42 literal_43)))
(assert (str.in_re x_44 (re.++ (re.* re.allchar) (re.++ (str.to_re "\u{5c}\u{3c}\u{53}\u{43}\u{52}\u{49}\u{50}\u{54}") (re.* re.allchar)))))
(check-sat)
(exit)
